============================[ Problem Statistics ]=============================|                                                                             ||  Number of variables:        267592                                         ||  Number of clauses:         1494900                                         ||  Parse time:                   2.13 s                                       ||                                                                             |============================[ Search Statistics ]==============================| Conflicts |          ORIGINAL         |          LEARNT          | Progress ||           |    Vars  Clauses Literals |    Limit  Clauses Lit/Cl |          |==============================================================================================================================================================restarts              : 1conflicts             : 96             (38 /sec)decisions             : 19418          (0.00 % random) (7739 /sec)propagations          : 392410         (156401 /sec)conflict literals     : 1425           (3.13 % deleted)CPU time              : 2.509 sSATISFIABLE